Minimize

2.0 x_0 + 3.0 x_1 + 5.0 x_2 + 3.5 x_3 + 1.5 x_4 + 4.5 x_5 + 6.0 x_6 + 1.0 x_7


Subject To

a0: 0 x_0 + 0 x_1 + 1 x_2 + 1 x_3 + 0 x_4 + 0 x_5 + 0 x_6 + 0 x_7 >= 1
a1: 1 x_0 + 0 x_1 + 0 x_2 + 0 x_3 + 0 x_4 + 0 x_5 + 0 x_6 + 1 x_7 >= 1
a2: 0 x_0 + 0 x_1 + 0 x_2 + 1 x_3 + 1 x_4 + 0 x_5 + 0 x_6 + 1 x_7 >= 1
a3: 0 x_0 + 0 x_1 + 0 x_2 + 1 x_3 + 0 x_4 + 1 x_5 + 0 x_6 + 0 x_7 >= 1
a4: 0 x_0 + 0 x_1 + 1 x_2 + 0 x_3 + 0 x_4 + 1 x_5 + 1 x_6 + 1 x_7 >= 1
a5: 1 x_0 + 0 x_1 + 0 x_2 + 0 x_3 + 0 x_4 + 1 x_5 + 1 x_6 + 0 x_7 >= 1
a6: 1 x_0 + 1 x_1 + 0 x_2 + 0 x_3 + 1 x_4 + 0 x_5 + 0 x_6 + 0 x_7 >= 1
b0: 0 x_0 - y_0 <= 0
b1: 1 x_1 - y_0 <= 0
b2: 1 x_2 - y_0 <= 0
b3: 0 x_3 - y_0 <= 0
b4: 0 x_4 - y_0 <= 0
b5: 1 x_5 - y_0 <= 0
b6: 0 x_6 - y_0 <= 0
b7: 0 x_7 - y_0 <= 0
b8: 0 x_0 - y_1 <= 0
b9: 0 x_1 - y_1 <= 0
b10: 0 x_2 - y_1 <= 0
b11: 0 x_3 - y_1 <= 0
b12: 1 x_4 - y_1 <= 0
b13: 0 x_5 - y_1 <= 0
b14: 1 x_6 - y_1 <= 0
b15: 1 x_7 - y_1 <= 0
b16: 1 x_0 - y_2 <= 0
b17: 0 x_1 - y_2 <= 0
b18: 0 x_2 - y_2 <= 0
b19: 1 x_3 - y_2 <= 0
b20: 0 x_4 - y_2 <= 0
b21: 0 x_5 - y_2 <= 0
b22: 0 x_6 - y_2 <= 0
b23: 0 x_7 - y_2 <= 0
c0: y_0 + y_1 + y_2 <= 3




Binary

x_0 x_1 x_2 x_3 x_4 x_5 x_6 x_7 y_0 y_1 y_2

 


End
